\ENCODING=ISO-8859-1
\Problem name: ILOG.CPLEX

Minimize
 obj1: 0.00260205878800287 w1 + 0.00269949080620779 w2 + 0.00072747578611731 w3
       + 0.00113475352842755 w4 + 0.00154920302431113 w5
Subject To
 c1: w1 + w2 + w3 + w4 + w5  = 1
Bounds
 0 <= w1 <= 1
 0 <= w2 <= 1
 0 <= w3 <= 1
 0 <= w4 <= 1
 0 <= w5 <= 1
End
